0 6 6 6 9 8 9 3 6 6
4 0 9 5 2 3 7 2 4 6
7 10 0 7 6 6 1 6 2 6
5 8 10 0 1 1 9 4 3 7
10 10 3 10 0 6 9 8 6 3
1 5 8 6 7 0 8 1 4 7
6 5 2 1 5 3 0 2 9 7
2 4 1 4 2 1 7 0 8 2
10 7 5 10 1 1 2 10 0 3
9 6 10 4 2 1 8 5 6 0
